20	5
0	2	2	1
1	1	8
2	2	6	18
3	2	13	16
4	1	12
5	1	3
6	1	9
7	1	11
8	3	17	7	20
9	2	4	19
10	1	5
11	2	15	10
12	0
13	1	14
14	1	21
15	1	21
16	1	21
17	1	21
18	1	21
19	1	21
20	1	21
21	0
0	0	0	0	0	0	0
1	7	4	0	4	4	4
2	2	0	0	2	0	0
3	3	0	4	0	0	1
4	5	0	0	0	0	4
5	8	2	2	4	3	5
6	9	4	2	0	3	3
7	9	0	4	3	4	0
8	6	0	1	2	0	5
9	5	0	0	1	0	5
10	5	3	0	1	0	2
11	7	4	0	0	0	0
12	6	0	5	5	4	0
13	3	0	1	0	4	1
14	3	0	0	1	2	0
15	7	0	1	2	0	0
16	9	0	0	0	4	4
17	5	2	2	0	0	3
18	2	5	2	4	0	0
19	2	0	0	3	0	2
20	4	0	0	0	0	1
21	0	0	0	0	0	0
6	5	6	5	5
